s td 126 13 166
b 1 7 43 59 105
b 2 8 14 87 138
b 3 19 54 63 98
b 4 24 33 90 97
b 5 5 26 100 120
b 6 27 40 166
b 7 6 29 82 134
b 8 3 22 30 163
b 9 2 34 126
b 10 36 42 69 119
b 11 37 90 97 103
b 12 38 88 102 108
b 13 23 39 41 149
b 14 2 44 71 147
b 15 25 49 61 127
b 16 16 50 74 77
b 17 32 56 65 135
b 18 4 58 91 107
b 19 64 130 157
b 20 66 80 153
b 21 47 68 76
b 22 31 70 108
b 23 46 57 78
b 24 8 32 79 155
b 25 6 82 83 161
b 26 5 35 84 120
b 27 15 89 113
b 28 1 93 151
b 29 51 95 101 112
b 30 3 22 99 164
b 31 46 57 96 104
b 32 106 111 118 129
b 33 15 48 124 160
b 34 90 97 115
b 35 40 55 125 166
b 36 25 61 110 136
b 37 25 61 141
b 38 48 124 142
b 39 52 73 143
b 40 28 86 146 150
b 41 2 126
b 42 40 126 148 166
b 43 12 47 76 152
b 44 47 76 80 128
b 45 137 154 156
b 46 8 21 32 73
b 47 21 32 73
b 48 46 57 132 137
b 49 48 124 130 139
b 50 39 75 149 158
b 51 60 109 114 162
b 52 21 73 88
b 53 52 73 88
b 54 6 82 134 161
b 55 52 88 108
b 56 31 52 108
b 57 10 20 39 61 72
b 58 10 39 61 123
b 59 12 33 90 97
b 60 5 35 69 120
b 61 54 63 98 101
b 62 5 100 120 131
b 63 90 97 103 128
b 64 25 61 110 132
b 65 101 111 118 129
b 66 25 61 96 127
b 67 6 75 134 161
b 68 28 48 124 139
b 69 1 53 144 151
b 70 48 122 124 160
b 71 1 18 28 48 55 62 76 86 97 114 122 145 148
b 72 18 28 52 55 62 76 81 86 101 114 122 145 148
b 73 18 28 52 55 62 81 101 114 122 133 145 148
b 74 17 18 28 52 55 62 81 101 114 122 133 148
b 75 17 18 28 52 55 62 74 77 81 101 114 133 148
b 76 17 18 28 55 62 74 77 81 101 114 133 148 163
b 77 17 18 55 62 81 101 114 123 133 148 163
b 78 17 18 22 46 55 62 81 101 114 123 148 163
b 79 17 18 22 46 55 62 114 123 148 163 164
b 80 18 22 46 55 62 114 123 132 148 163 164
b 81 18 22 46 55 62 96 114 123 132 163 164
b 82 13 18 22 46 62 96 114 123 132 163 164
b 83 11 13 22 46 62 96 114 123 132 163 164
b 84 4 11 13 22 46 96 114 123 132 163 164
b 85 4 11 13 22 46 57 96 132 163 164
b 86 3 4 11 13 22 57 163 164
b 87 3 4 11 13 57 91 107
b 88 4 11 13 25 61 96 123 132 163 164
b 89 4 11 13 25 39 61 123 163 164
b 90 4 11 13 25 39 75 163 164
b 91 4 11 13 23 25 39 75 164
b 92 4 11 13 23 25 39 75 149
b 93 4 6 11 13 23 25 75 149
b 94 4 6 11 13 25 131 149
b 95 4 6 11 25 117 131 149
b 96 4 6 25 69 117 131 149
b 97 5 6 69 117 120 131
b 98 25 42 69 117 119 131 149
b 99 6 23 75 161
b 100 22 46 63 81 98 101 123
b 101 16 28 74 77 163
b 102 18 55 62 74 77 81 101 114 133 148 166
b 103 40 55 77 81 101 133 148 166
b 104 40 51 77 81 101 112 133
b 105 18 60 62 74 109 114 166
b 106 28 52 76 81 86 101 122 145 150
b 107 76 81 101 118 129 145 150
b 108 1 18 28 48 55 62 76 86 97 114 122 124 148
b 109 1 18 55 62 76 86 97 114 124 128 148
b 110 1 12 18 55 62 76 86 97 114 124 128
b 111 1 12 18 62 76 86 90 97 114 124 128
b 112 1 12 18 47 62 76 86 90 114 124 128
b 113 1 18 47 62 86 90 114 124 165
b 114 1 47 62 67 86 90 114 124 165
b 115 1 43 47 67 86 90 114 124 165
b 116 43 47 59 67 86 105 165
b 117 1 43 67 90 116 121 124 165
b 118 1 48 53 97 144 145
b 119 9 76 81 118 129
b 120 31 52 86 122 150
b 121 45 90 116 121 165
b 122 46 63 81 85 98
b 123 67 92 116 121 124
b 124 48 53 94 144 145
b 125 5 6 117 120 140
b 126 1 43 116 121 159
1 116
2 46
3 61
4 59
5 62
6 103
7 54
8 86
9 41
10 98
11 63
12 55
13 92
14 41
15 66
16 101
17 47
18 87
19 49
20 44
21 112
22 56
23 85
24 46
25 54
26 60
27 33
28 69
29 104
30 86
31 85
32 65
33 70
34 111
35 103
36 64
37 88
38 108
39 53
40 106
41 42
42 103
43 112
44 112
45 48
46 47
47 52
48 85
49 68
50 92
51 105
52 53
53 55
54 67
55 56
56 120
57 58
58 89
59 111
60 97
61 100
62 97
63 111
64 88
65 107
66 88
67 99
68 108
69 118
70 108
71 72
71 108
71 118
72 73
72 106
73 74
74 75
75 76
75 102
76 77
76 101
77 78
78 79
78 100
79 80
80 81
81 82
82 83
83 84
84 85
84 88
85 86
86 87
88 89
89 90
90 91
91 92
92 93
93 94
93 99
94 95
95 96
96 97
96 98
97 125
100 122
102 103
102 105
103 104
106 120
106 107
107 119
108 109
109 110
110 111
111 112
112 113
113 114
114 115
115 116
115 117
117 121
117 123
117 126
118 124
